(set-option :print-success false)
(set-logic QF_UF)
(declare-sort x91 0)
(declare-sort x11 0)
(declare-fun x44 () x11)
(declare-fun x3 (x11 x11) x11)
(declare-fun x139 () x11)
(declare-fun x46 () x11)
(declare-fun x23 () x11)
(declare-fun x26 () x11)
(declare-fun x34 (x11 x11) x11)
(assert (and (and (and (= (x3 x26 x26) x139) (= x46 (x3 x139 x23))) (= (x3 x139 x26) x23)) (= x44 (x3 x23 x139))))
(assert (let ((x60 (x3 x139 x139)) (x88 (x3 x23 x139)) (x35 (x3 x23 x26)) (x108 (x3 x46 x139)) (x152 (x3 x46 x46)) (x101 (x3 x44 x23)) (x120 (x3 x26 x46)) (x57 (x3 x139 x23)) (x96 (x3 x26 x23)) (x137 (x3 x44 x46)) (x73 (x3 x26 x44)) (x54 (x3 x139 x44)) (x111 (x3 x44 x26)) (x24 (x3 x26 x26)) (x77 (x3 x44 x44)) (x126 (x3 x23 x44)) (x79 (x3 x46 x26)) (x28 (x3 x139 x26)) (x15 (x3 x23 x23)) (x1 (x3 x26 x139)) (x106 (x3 x46 x23)) (x5 (x3 x139 x46)) (x72 (x3 x44 x139)) (x89 (x3 x46 x44)) (x102 (x3 x23 x46))) (let ((x43 (not (= x46 x120))) (x103 (not (= x46 x57))) (x69 (not (= x137 x44))) (x136 (not (= x139 x28))) (x56 (not (= x5 x139))) (x159 (not (= x26 x111))) (x68 (not (= x5 x46))) (x30 (not (= x46 x101))) (x9 (not (= x35 x46))) (x61 (not (= x106 x23))) (x45 (not (= x60 x139))) (x93 (not (= x26 x77))) (x18 (not (= x111 x23))) (x155 (not (= x139 x89))) (x123 (not (= x111 x46))) (x13 (not (= x96 x139))) (x124 (not (= x139 x102))) (x150 (not (= x73 x46))) (x118 (not (= x28 x26))) (x86 (not (= x139 x152))) (x17 (not (= x26 x89))) (x98 (not (= x26 x35))) (x55 (not (= x79 x23))) (x7 (not (= x60 x23))) (x21 (not (= x101 x44))) (x134 (not (= x88 x46))) (x37 (not (= x139 x15))) (x71 (not (= x120 x26))) (x153 (not (= x24 x26))) (x14 (not (= x35 x23))) (x105 (not (= x152 x44))) (x76 (not (= x28 x46))) (x94 (not (= x152 x46))) (x12 (not (= x46 x137))) (x131 (not (= x88 x26))) (x82 (not (= x26 x54))) (x117 (not (= x26 x73))) (x67 (not (= x139 x35))) (x97 (not (= x152 x26))) (x112 (not (= x60 x44))) (x143 (not (= x5 x26))) (x122 (not (= x152 x23))) (x48 (not (= x46 x106))) (x146 (not (= x106 x26))) (x38 (not (= x23 x72))) (x40 (not (= x102 x44))) (x132 (not (= x24 x46))) (x19 (not (= x23 x54))) (x41 (not (= x72 x139))) (x70 (not (= x77 x139))) (x22 (not (= x26 x108))) (x147 (not (= x126 x23))) (x158 (not (= x89 x44))) (x90 (not (= x28 x23))) (x42 (not (= x46 x77))) (x141 (not (= x126 x26))) (x20 (not (= x79 x44))) (x104 (not (= x26 x15))) (x127 (not (= x88 x139))) (x121 (not (= x26 x1))) (x10 (not (= x139 x137))) (x81 (not (= x139 x57))) (x129 (not (= x23 x1))) (x142 (not (= x44 x5))) (x95 (not (= x26 x137))) (x130 (not (= x1 x139))) (x74 (not (= x46 x72))) (x113 (not (= x106 x44))) (x63 (not (= x46 x15))) (x151 (not (= x26 x60))) (x115 (not (= x44 x54))) (x157 (not (= x23 x24))) (x36 (not (= x44 x28))) (x125 (not (= x1 x44))) (x116 (not (= x88 x44))) (x49 (not (= x44 x77))) (x16 (not (= x44 x108))) (x58 (not (= x23 x77))) (x8 (not (= x79 x46))) (x100 (not (= x23 x101))) (x138 (not (= x102 x23))) (x2 (not (= x23 x96))) (x64 (not (= x72 x44))) (x62 (not (= x101 x26))) (x145 (not (= x44 x120))) (x52 (not (= x137 x23))) (x128 (not (= x139 x73))) (x31 (not (= x57 x23))) (x59 (not (= x73 x44))) (x4 (not (= x139 x24))) (x107 (not (= x23 x108))) (x84 (not (= x139 x54))) (x29 (not (= x46 x89))) (x110 (not (= x79 x26))) (x99 (not (= x26 x72))) (x133 (not (= x79 x139))) (x87 (not (= x106 x139))) (x75 (not (= x15 x23))) (x78 (not (= x44 x111))) (x6 (not (= x96 x46))) (x39 (not (= x101 x139))) (x50 (not (= x26 x96))) (x51 (not (= x120 x139))) (x149 (not (= x26 x102))) (x154 (not (= x35 x44))) (x85 (not (= x89 x23))) (x66 (not (= x46 x102))) (x27 (not (= x46 x126))) (x80 (not (= x23 x88))) (x119 (not (= x44 x24))) (x135 (not (= x139 x111))) (x65 (not (= x57 x44))) (x53 (not (= x46 x54))) (x148 (not (= x139 x108))) (x92 (not (= x57 x26))) (x144 (not (= x46 x108))) (x47 (not (= x73 x23))) (x83 (not (= x139 x126))) (x109 (not (= x46 x1))) (x25 (not (= x46 x60))) (x33 (not (= x44 x15))) (x32 (not (= x126 x44))) (x156 (not (= x23 x120))) (x140 (not (= x96 x44))) (x114 (not (= x23 x5)))) (or (and (and (and (or x21 x32) (and (or x78 x59) (and (or x69 x158) (or x115 x64)))) (or x49 x49)) (and (and (and (and (or x140 x154) (and (and (or x145 x20) (or x125 x36)) (or x119 x119))) (or x78 x59)) (and (and (or x69 x158) (and (and (and (or x105 x105) (or x16 x142)) (or x145 x20)) (or x40 x113))) (and (or x115 x64) (and (or x65 x116) (and (and (or x142 x16) (or x112 x112)) (or x36 x125)))))) (and (or x21 x32) (and (or x33 x33) (and (and (or x65 x116) (or x113 x40)) (or x154 x140)))))) (or (or (or (and (and (and (or x27 x30) (and (and (or x9 x6) (and (or x134 x103) (or x48 x66))) (or x63 x63))) (and (and (and (or x29 x12) (and (and (and (or x94 x94) (or x68 x144)) (or x43 x8)) (or x66 x48))) (and (and (and (or x109 x76) (and (or x25 x25) (or x144 x68))) (or x103 x134)) (or x74 x53))) (and (and (or x9 x6) (and (and (or x109 x76) (or x43 x8)) (or x132 x132))) (or x150 x123)))) (and (or x42 x42) (and (and (or x150 x123) (and (or x12 x29) (or x74 x53))) (or x27 x30)))) (and (and (and (and (and (and (or x124 x87) (and (and (or x86 x86) (or x56 x148)) (or x133 x51))) (or x155 x10)) (and (and (and (and (or x45 x45) (or x148 x56)) (or x130 x136)) (or x81 x127)) (or x41 x84))) (and (or x135 x128) (and (and (or x4 x4) (and (or x51 x133) (or x130 x136))) (or x67 x13)))) (and (or x83 x39) (and (and (or x67 x13) (and (or x81 x127) (or x124 x87))) (or x37 x37)))) (and (or x70 x70) (and (and (or x135 x128) (and (or x41 x84) (or x10 x155))) (or x83 x39))))) (and (and (and (or x62 x141) (and (or x117 x159) (and (or x17 x95) (or x99 x82)))) (or x93 x93)) (and (and (and (or x117 x159) (and (and (and (or x118 x121) (or x71 x110)) (or x153 x153)) (or x50 x98))) (and (and (or x95 x17) (and (and (or x110 x71) (and (or x143 x22) (or x97 x97))) (or x146 x149))) (and (or x82 x99) (and (or x92 x131) (and (and (or x151 x151) (or x143 x22)) (or x118 x121)))))) (and (or x62 x141) (and (and (and (or x146 x149) (or x92 x131)) (or x98 x50)) (or x104 x104)))))) (and (and (and (or x100 x147) (and (or x75 x75) (and (or x2 x14) (and (or x31 x80) (or x61 x138))))) (and (and (and (and (or x80 x31) (and (and (or x114 x107) (or x7 x7)) (or x90 x129))) (or x19 x38)) (and (and (or x138 x61) (and (and (or x107 x114) (or x122 x122)) (or x156 x55))) (or x52 x85))) (and (or x18 x47) (and (or x14 x2) (and (or x157 x157) (and (or x55 x156) (or x129 x90))))))) (and (and (and (or x47 x18) (and (or x19 x38) (or x85 x52))) (or x147 x100)) (or x58 x58))))))))
(assert (not (and (= (x3 x44 x44) x46) (and (= x139 (x3 x44 x23)) (and (= (x3 x44 x26) x26) (and (and (and (= (x3 x23 x44) x139) (and (= x26 (x3 x23 x23)) (and (= x46 (x3 x23 x26)) (and (= (x3 x23 x139) x44) (and (and (and (and (= (x3 x26 x26) x139) (and (= (x3 x26 x139) x26) (and (and (= x44 (x3 x139 x44)) (and (and (and (and (= x26 (x3 x139 x46)) (and (= x26 (x3 x46 x44)) (and (= (x3 x46 x23) x23) (and (= (x3 x46 x26) x44) (and (= (x3 x46 x46) x139) (= (x3 x46 x139) x46)))))) (= (x3 x139 x139) x139)) (= (x3 x139 x26) x23)) (= x46 (x3 x139 x23)))) (= (x3 x26 x46) x46)))) (= x44 (x3 x26 x23))) (= (x3 x26 x44) x23)) (= x23 (x3 x23 x46))))))) (= x44 (x3 x44 x46))) (= (x3 x44 x139) x23)))))))
(assert (let ((x94 (x3 x46 x46)) (x30 (x3 x26 x44)) (x123 (x3 x46 x44)) (x12 (x3 x139 x23)) (x53 (x3 x44 x23)) (x74 (x3 x23 x23)) (x6 (x3 x44 x26)) (x8 (x3 x46 x139)) (x150 (x3 x139 x44)) (x144 (x3 x26 x46)) (x43 (x3 x44 x46)) (x29 (x3 x26 x23)) (x76 (x3 x26 x139)) (x42 (x3 x44 x44)) (x68 (x3 x139 x46)) (x134 (x3 x139 x26)) (x66 (x3 x44 x139)) (x48 (x3 x46 x26)) (x27 (x3 x23 x44)) (x109 (x3 x139 x139)) (x25 (x3 x23 x46)) (x132 (x3 x23 x139)) (x9 (x3 x23 x26)) (x63 (x3 x46 x23)) (x103 (x3 x26 x26))) (and (and (and (not (= x27 x42)) (and (and (not (= x30 x27)) (and (not (= x150 x42)) (and (not (= x150 x27)) (and (not (= x150 x30)) (and (and (and (not (= x30 x123)) (not (= x123 x150))) (not (= x27 x123))) (not (= x123 x42))))))) (not (= x30 x42)))) (and (and (and (and (not (= x29 x74)) (and (not (= x53 x12)) (and (not (= x74 x12)) (and (not (= x29 x12)) (and (and (and (not (= x63 x12)) (not (= x63 x29))) (not (= x74 x63))) (not (= x53 x63))))))) (not (= x29 x53))) (not (= x53 x74))) (and (and (and (and (and (not (= x132 x76)) (and (not (= x109 x66)) (and (and (and (and (not (= x132 x8)) (and (not (= x8 x76)) (not (= x109 x8)))) (not (= x8 x66))) (not (= x109 x76))) (not (= x109 x132))))) (not (= x66 x76))) (not (= x66 x132))) (and (not (= x43 x25)) (and (not (= x144 x43)) (and (and (and (and (and (and (not (= x94 x25)) (and (not (= x94 x144)) (not (= x94 x68)))) (not (= x94 x43))) (not (= x68 x144))) (not (= x25 x68))) (not (= x43 x68))) (not (= x144 x25)))))) (and (and (not (= x6 x103)) (and (and (not (= x134 x6)) (and (and (and (and (and (not (= x134 x48)) (not (= x103 x48))) (not (= x48 x9))) (not (= x6 x48))) (not (= x103 x134))) (not (= x9 x134)))) (not (= x9 x103)))) (not (= x9 x6)))))) (and (and (not (= x42 x53)) (and (not (= x42 x6)) (and (and (and (not (= x53 x66)) (and (not (= x66 x6)) (and (and (not (= x43 x53)) (and (not (= x43 x66)) (not (= x6 x43)))) (not (= x43 x42))))) (not (= x42 x66))) (not (= x6 x53))))) (and (and (not (= x27 x74)) (and (not (= x27 x9)) (and (and (and (not (= x132 x74)) (and (and (not (= x27 x25)) (and (and (not (= x25 x132)) (not (= x25 x9))) (not (= x74 x25)))) (not (= x9 x132)))) (not (= x27 x132))) (not (= x74 x9))))) (and (and (and (and (not (= x123 x48)) (and (and (not (= x123 x8)) (and (and (and (not (= x123 x94)) (and (not (= x94 x63)) (and (not (= x8 x94)) (not (= x94 x48))))) (not (= x8 x48))) (not (= x63 x8)))) (not (= x63 x48)))) (not (= x123 x63))) (and (not (= x150 x12)) (and (and (not (= x12 x134)) (and (and (not (= x12 x109)) (and (not (= x109 x134)) (and (and (not (= x68 x12)) (and (not (= x68 x134)) (not (= x68 x109)))) (not (= x68 x150))))) (not (= x109 x150)))) (not (= x134 x150))))) (and (not (= x29 x30)) (and (and (not (= x29 x103)) (and (and (and (not (= x103 x76)) (and (and (not (= x144 x29)) (and (not (= x144 x103)) (not (= x144 x76)))) (not (= x144 x30)))) (not (= x29 x76))) (not (= x30 x76)))) (not (= x103 x30))))))))))
(assert (and (or (or (or (or (= (x3 (x3 x44 x139) x44) x139) (= x46 (x3 (x3 x44 x46) x44))) (= (x3 (x3 x44 x26) x44) x26)) (= x23 (x3 (x3 x44 x23) x44))) (= (x3 (x3 x44 x44) x44) x44)) (and (or (= (x3 (x3 x23 x44) x23) x44) (or (or (= (x3 (x3 x23 x26) x23) x26) (or (= x139 (x3 (x3 x23 x139) x23)) (= x46 (x3 (x3 x23 x46) x23)))) (= x23 (x3 (x3 x23 x23) x23)))) (and (and (or (= x44 (x3 (x3 x139 x44) x139)) (or (= x23 (x3 (x3 x139 x23) x139)) (or (= x26 (x3 (x3 x139 x26) x139)) (or (= x46 (x3 (x3 x139 x46) x139)) (= x139 (x3 (x3 x139 x139) x139)))))) (or (or (= (x3 (x3 x46 x23) x46) x23) (or (= x26 (x3 (x3 x46 x26) x46)) (or (= x139 (x3 (x3 x46 x139) x46)) (= (x3 (x3 x46 x46) x46) x46)))) (= (x3 (x3 x46 x44) x46) x44))) (or (or (or (= x26 (x3 (x3 x26 x26) x26)) (or (= (x3 (x3 x26 x139) x26) x139) (= (x3 (x3 x26 x46) x26) x46))) (= (x3 (x3 x26 x23) x26) x23)) (= (x3 (x3 x26 x44) x26) x44))))))
(assert (and (or (or (= (x3 x23 (x3 x44 x23)) x44) (or (or (= (x3 x46 (x3 x44 x46)) x44) (= x44 (x3 x139 (x3 x44 x139)))) (= x44 (x3 x26 (x3 x44 x26))))) (= (x3 x44 (x3 x44 x44)) x44)) (and (and (and (or (or (= x139 (x3 x23 (x3 x139 x23))) (or (or (= x139 (x3 x139 (x3 x139 x139))) (= x139 (x3 x46 (x3 x139 x46)))) (= x139 (x3 x26 (x3 x139 x26))))) (= x139 (x3 x44 (x3 x139 x44)))) (or (or (= (x3 x23 (x3 x46 x23)) x46) (or (or (= (x3 x139 (x3 x46 x139)) x46) (= (x3 x46 (x3 x46 x46)) x46)) (= x46 (x3 x26 (x3 x46 x26))))) (= (x3 x44 (x3 x46 x44)) x46))) (or (or (= (x3 x23 (x3 x26 x23)) x26) (or (= x26 (x3 x26 (x3 x26 x26))) (or (= x26 (x3 x139 (x3 x26 x139))) (= (x3 x46 (x3 x26 x46)) x26)))) (= x26 (x3 x44 (x3 x26 x44))))) (or (= x23 (x3 x44 (x3 x23 x44))) (or (= x23 (x3 x23 (x3 x23 x23))) (or (= (x3 x26 (x3 x23 x26)) x23) (or (= (x3 x46 (x3 x23 x46)) x23) (= (x3 x139 (x3 x23 x139)) x23))))))))
(assert (or (and (not (= x44 (x3 x44 x44))) (and (not (= (x3 x44 x23) x23)) (and (and (not (= (x3 x44 x139) x139)) (not (= (x3 x44 x46) x46))) (not (= x26 (x3 x44 x26)))))) (or (and (not (= x44 (x3 x23 x44))) (and (and (not (= (x3 x23 x26) x26)) (and (not (= (x3 x23 x139) x139)) (not (= (x3 x23 x46) x46)))) (not (= (x3 x23 x23) x23)))) (or (and (not (= (x3 x26 x44) x44)) (and (not (= (x3 x26 x23) x23)) (and (not (= (x3 x26 x26) x26)) (and (not (= (x3 x26 x139) x139)) (not (= (x3 x26 x46) x46)))))) (or (and (not (= (x3 x139 x44) x44)) (and (not (= x23 (x3 x139 x23))) (and (and (not (= x139 (x3 x139 x139))) (not (= x46 (x3 x139 x46)))) (not (= x26 (x3 x139 x26)))))) (and (not (= x44 (x3 x46 x44))) (and (not (= (x3 x46 x23) x23)) (and (and (not (= (x3 x46 x46) x46)) (not (= x139 (x3 x46 x139)))) (not (= (x3 x46 x26) x26))))))))))
(assert (let ((x150 (x3 x139 x44)) (x86 (x3 x44 x139)) (x118 (x3 x44 x23)) (x85 (x3 x44 x44)) (x43 (x3 x46 x23)) (x8 (x3 x46 x44)) (x54 (x3 x26 x26)) (x132 (x3 x26 x46)) (x144 (x3 x46 x139)) (x53 (x3 x139 x26)) (x68 (x3 x46 x46)) (x123 (x3 x139 x23)) (x25 (x3 x46 x26)) (x66 (x3 x23 x46)) (x143 (x3 x23 x23)) (x22 (x3 x23 x44)) (x24 (x3 x23 x26)) (x4 (x3 x44 x26)) (x51 (x3 x26 x44)) (x76 (x3 x139 x46)) (x48 (x3 x44 x46)) (x152 (x3 x23 x139)) (x74 (x3 x139 x139)) (x72 (x3 x26 x23)) (x42 (x3 x26 x139))) (let ((x102 (= x23 x74)) (x107 (= x44 x72)) (x13 (= x23 x54)) (x137 (= x44 x144)) (x63 (= x144 x46)) (x69 (= x48 x44)) (x112 (= x150 x26)) (x28 (= x46 x53)) (x96 (= x132 x26)) (x41 (= x152 x46)) (x65 (= x150 x23)) (x100 (= x139 x85)) (x80 (= x46 x22)) (x145 (= x51 x26)) (x77 (= x66 x139)) (x67 (= x23 x53)) (x159 (= x23 x72)) (x40 (= x23 x4)) (x7 (= x44 x143)) (x20 (= x26 x22)) (x121 (= x139 x143)) (x136 (= x139 x54)) (x114 (= x44 x123)) (x154 (= x23 x51)) (x130 (= x53 x139)) (x110 (= x72 x139)) (x52 (= x139 x118)) (x19 (= x139 x150)) (x92 (= x123 x26)) (x27 (= x74 x139)) (x135 (= x43 x46)) (x61 (= x51 x46)) (x79 (= x26 x74)) (x82 (= x123 x23)) (x95 (= x152 x23)) (x116 (= x8 x23)) (x37 (= x42 x44)) (x84 (= x46 x24)) (x45 (= x25 x46)) (x75 (= x139 x4)) (x39 (= x72 x46)) (x47 (= x22 x139)) (x94 (= x46 x68)) (x2 (= x86 x139)) (x32 (= x22 x44)) (x38 (= x8 x139)) (x31 (= x46 x85)) (x148 (= x46 x132)) (x127 (= x23 x42)) (x158 (= x86 x44)) (x101 (= x53 x44)) (x18 (= x139 x51)) (x73 (= x26 x25)) (x10 (= x54 x44)) (x146 (= x26 x24)) (x50 (= x143 x26)) (x117 (= x23 x143)) (x6 (= x76 x46)) (x99 (= x23 x43)) (x98 (= x72 x26)) (x12 (= x74 x46)) (x129 (= x4 x46)) (x111 (= x53 x26)) (x14 (= x48 x139)) (x60 (= x42 x46)) (x5 (= x144 x26)) (x83 (= x46 x143)) (x149 (= x152 x26)) (x134 (= x68 x26)) (x59 (= x150 x44)) (x126 (= x25 x44)) (x33 (= x23 x85)) (x103 (= x23 x68)) (x131 (= x43 x26)) (x156 (= x46 x48)) (x104 (= x66 x23)) (x58 (= x26 x86)) (x90 (= x118 x46)) (x30 (= x139 x144)) (x128 (= x46 x123)) (x70 (= x152 x139)) (x17 (= x23 x24)) (x108 (= x26 x76)) (x153 (= x26 x66)) (x119 (= x86 x23)) (x93 (= x24 x44)) (x9 (= x44 x68)) (x55 (= x46 x86)) (x62 (= x44 x66)) (x142 (= x118 x26)) (x21 (= x44 x51)) (x36 (= x23 x48)) (x88 (= x139 x42)) (x16 (= x26 x8)) (x57 (= x132 x139)) (x1 (= x54 x46)) (x78 (= x8 x44)) (x133 (= x25 x139)) (x87 (= x132 x23)) (x109 (= x139 x68)) (x138 (= x150 x46)) (x81 (= x25 x23)) (x89 (= x44 x76)) (x157 (= x46 x8)) (x124 (= x54 x26)) (x141 (= x44 x152)) (x97 (= x139 x24)) (x151 (= x43 x139)) (x113 (= x118 x23)) (x49 (= x44 x85)) (x115 (= x44 x118)) (x125 (= x85 x26)) (x120 (= x23 x76)) (x147 (= x26 x48)) (x105 (= x26 x4)) (x140 (= x23 x22)) (x29 (= x139 x76)) (x35 (= x42 x26)) (x56 (= x74 x44)) (x64 (= x44 x4)) (x15 (= x132 x44)) (x155 (= x46 x66)) (x122 (= x43 x44)) (x71 (= x123 x139)) (x106 (= x144 x23))) (and (and (and (and (and (and (and (or (or (or x87 (or x120 x103)) x104) x36) (or (or (or x81 (or x106 x103)) x99) x116)) (and (and (or (or x131 (or (or x5 x134) x73)) x16) (or (or x153 (or (or x134 x108) x96)) x147)) (and (and (or x38 (or x151 (or (or x109 x30) x133))) (or (or (or (or x109 x29) x57) x77) x14)) (and (or (or x155 (or x148 (or x6 x94))) x156) (or (or x135 (or (or x63 x94) x45)) x157))))) (and (or (or (or x126 (or x9 x137)) x122) x78) (or (or x62 (or (or x89 x9) x15)) x69))) (and (and (or (or x114 (or x101 (or x56 x89))) x59) (or (or (or (or x137 x56) x37) x141) x158)) (and (and (and (or (or x149 (or (or x79 x5) x35)) x58) (or (or (or (or x79 x108) x111) x92) x112)) (and (and (or (or (or x60 (or x63 x12)) x41) x55) (or (or (or x28 (or x6 x12)) x128) x138)) (and (or x19 (or x71 (or x130 (or x27 x29)))) (or x2 (or (or x88 (or x27 x30)) x70))))) (and (or x65 (or x82 (or (or x120 x102) x67))) (or x119 (or (or (or x102 x106) x127) x95)))))) (and (and (or (or (or x10 (or x101 x126)) x93) x64) (or (or x107 (or (or x37 x15) x10)) x21)) (and (and (and (and (or (or x97 (or (or x133 x130) x136)) x75) (or (or (or x136 (or x57 x88)) x110) x18)) (and (or x129 (or (or (or x45 x28) x1) x84)) (or (or (or (or x60 x148) x1) x39) x61))) (and (or x145 (or (or (or x35 x96) x124) x98)) (or (or x146 (or (or x73 x111) x124)) x105))) (and (or (or (or (or x81 x67) x13) x17) x40) (or (or (or x13 (or x87 x127)) x159) x154))))) (and (and (or (or (or x93 (or x141 x62)) x7) x32) (or x115 (or x7 (or (or x122 x114) x107)))) (and (and (and (or x20 (or x50 (or x146 (or x149 x153)))) (or (or (or x98 (or x131 x92)) x50) x142)) (and (and (or x47 (or x121 (or (or x77 x70) x97))) (or (or x121 (or x110 (or x71 x151))) x52)) (and (or x80 (or x83 (or x84 (or x155 x41)))) (or x90 (or (or x39 (or x135 x128)) x83))))) (and (or (or (or x17 (or x95 x104)) x117) x140) (or x113 (or x117 (or x159 (or x99 x82)))))))) (and (and (or x49 (or (or (or x59 x78) x21) x32)) (or x49 (or x115 (or (or x69 x158) x64)))) (and (and (or (or (or (or x36 x119) x40) x113) x33) (or x33 (or x140 (or (or x116 x65) x154)))) (and (and (or x125 (or (or (or x112 x16) x145) x20)) (or (or (or (or x58 x147) x105) x142) x125)) (and (and (or x31 (or (or (or x157 x138) x61) x80)) (or x31 (or (or x129 (or x55 x156)) x90))) (and (or (or (or (or x19 x38) x18) x47) x100) (or (or x52 (or x75 (or x14 x2))) x100))))))))))
(assert (let ((x134 (x3 x26 x139)) (x29 (x3 x23 x26)) (x76 (x3 x139 x26)) (x12 (x3 x23 x139)) (x53 (x3 x23 x44)) (x43 (x3 x46 x44)) (x66 (x3 x139 x44)) (x103 (x3 x26 x26)) (x123 (x3 x44 x46)) (x48 (x3 x26 x46)) (x25 (x3 x46 x23)) (x9 (x3 x26 x23)) (x74 (x3 x23 x23)) (x150 (x3 x44 x139)) (x63 (x3 x23 x46)) (x27 (x3 x44 x23)) (x6 (x3 x26 x44)) (x94 (x3 x46 x46)) (x8 (x3 x139 x46)) (x132 (x3 x139 x23)) (x30 (x3 x44 x26)) (x144 (x3 x46 x26)) (x109 (x3 x139 x139)) (x68 (x3 x46 x139)) (x42 (x3 x44 x44))) (and (and (and (and (and (and (and (and (or (or (or (= x94 x26) (or (= x94 x139) (= x94 x46))) (= x23 x94)) (= x94 x44)) (or (= x68 x44) (or (= x23 x68) (or (= x68 x26) (or (= x68 x46) (= x139 x68)))))) (or (or (or (= x144 x26) (or (= x144 x139) (= x46 x144))) (= x23 x144)) (= x44 x144))) (or (or (or (= x26 x25) (or (= x25 x46) (= x25 x139))) (= x25 x23)) (= x25 x44))) (or (= x43 x44) (or (or (= x26 x43) (or (= x139 x43) (= x46 x43))) (= x43 x23)))) (and (or (= x66 x44) (or (= x23 x66) (or (or (= x66 x139) (= x66 x46)) (= x26 x66)))) (and (and (or (or (= x23 x76) (or (= x26 x76) (or (= x76 x139) (= x46 x76)))) (= x44 x76)) (and (or (= x44 x109) (or (= x23 x109) (or (= x26 x109) (or (= x109 x46) (= x109 x139))))) (or (= x8 x44) (or (= x8 x23) (or (= x8 x26) (or (= x8 x46) (= x139 x8))))))) (or (or (= x23 x132) (or (= x26 x132) (or (= x139 x132) (= x46 x132)))) (= x132 x44))))) (and (or (or (or (= x26 x6) (or (= x46 x6) (= x6 x139))) (= x6 x23)) (= x44 x6)) (and (or (= x9 x44) (or (= x23 x9) (or (= x9 x26) (or (= x139 x9) (= x46 x9))))) (and (or (or (= x23 x103) (or (or (= x103 x139) (= x46 x103)) (= x103 x26))) (= x103 x44)) (and (or (or (or (or (= x134 x139) (= x134 x46)) (= x26 x134)) (= x134 x23)) (= x44 x134)) (or (= x44 x48) (or (or (= x48 x26) (or (= x139 x48) (= x48 x46))) (= x23 x48)))))))) (and (and (and (and (or (or (= x23 x12) (or (= x26 x12) (or (= x12 x46) (= x139 x12)))) (= x12 x44)) (or (or (= x23 x63) (or (= x63 x26) (or (= x63 x46) (= x63 x139)))) (= x44 x63))) (or (= x29 x44) (or (= x29 x23) (or (or (= x29 x139) (= x46 x29)) (= x26 x29))))) (or (= x74 x44) (or (or (or (= x74 x139) (= x74 x46)) (= x26 x74)) (= x74 x23)))) (or (= x53 x44) (or (or (= x26 x53) (or (= x53 x46) (= x139 x53))) (= x23 x53))))) (and (and (and (or (or (or (= x26 x30) (or (= x139 x30) (= x46 x30))) (= x23 x30)) (= x44 x30)) (and (or (or (= x23 x123) (or (= x123 x26) (or (= x123 x46) (= x123 x139)))) (= x44 x123)) (or (or (= x23 x150) (or (or (= x150 x46) (= x139 x150)) (= x26 x150))) (= x44 x150)))) (or (= x27 x44) (or (= x23 x27) (or (= x27 x26) (or (= x139 x27) (= x46 x27)))))) (or (= x42 x44) (or (or (or (= x139 x42) (= x42 x46)) (= x42 x26)) (= x23 x42)))))))
(assert (or (= (x3 x44 x44) x44) (or (= (x3 x23 x23) x23) (or (= (x3 x26 x26) x26) (or (= x139 (x3 x139 x139)) (= (x3 x46 x46) x46))))))
(assert (and (and (not (= x44 x26)) (and (and (and (and (not (= x139 x26)) (and (not (= x46 x44)) (and (not (= x46 x23)) (and (not (= x46 x26)) (not (= x139 x46)))))) (not (= x23 x139))) (not (= x139 x44))) (not (= x23 x26)))) (not (= x44 x23))))
(assert (let ((x25 (x3 x23 x23)) (x43 (x3 x44 x44)) (x144 (x3 x26 x26)) (x68 (x3 x139 x139)) (x94 (x3 x46 x46))) (or (and (not (= x44 x43)) (and (not (= x25 x44)) (and (and (not (= x94 x44)) (not (= x44 x68))) (not (= x44 x144))))) (or (or (and (not (= x26 x43)) (and (and (and (not (= x26 x94)) (not (= x68 x26))) (not (= x26 x144))) (not (= x26 x25)))) (or (and (not (= x43 x139)) (and (and (not (= x144 x139)) (and (not (= x68 x139)) (not (= x139 x94)))) (not (= x25 x139)))) (and (and (and (not (= x46 x144)) (and (not (= x46 x94)) (not (= x68 x46)))) (not (= x25 x46))) (not (= x46 x43))))) (and (not (= x23 x43)) (and (not (= x25 x23)) (and (not (= x23 x144)) (and (not (= x94 x23)) (not (= x23 x68))))))))))
(assert (and (and (and (and (or (= x44 (x3 x139 (x3 x139 x44))) (or (= x23 (x3 x139 (x3 x139 x23))) (or (or (= x46 (x3 x139 (x3 x139 x46))) (= x139 (x3 x139 (x3 x139 x139)))) (= x26 (x3 x139 (x3 x139 x26)))))) (or (= (x3 x46 (x3 x46 x44)) x44) (or (= (x3 x46 (x3 x46 x23)) x23) (or (or (= (x3 x46 (x3 x46 x46)) x46) (= x139 (x3 x46 (x3 x46 x139)))) (= (x3 x46 (x3 x46 x26)) x26))))) (or (or (= x23 (x3 x26 (x3 x26 x23))) (or (or (= (x3 x26 (x3 x26 x46)) x46) (= (x3 x26 (x3 x26 x139)) x139)) (= (x3 x26 (x3 x26 x26)) x26))) (= x44 (x3 x26 (x3 x26 x44))))) (or (= x44 (x3 x23 (x3 x23 x44))) (or (= (x3 x23 (x3 x23 x23)) x23) (or (or (= x46 (x3 x23 (x3 x23 x46))) (= x139 (x3 x23 (x3 x23 x139)))) (= x26 (x3 x23 (x3 x23 x26))))))) (or (= x44 (x3 x44 (x3 x44 x44))) (or (= (x3 x44 (x3 x44 x23)) x23) (or (= (x3 x44 (x3 x44 x26)) x26) (or (= (x3 x44 (x3 x44 x139)) x139) (= x46 (x3 x44 (x3 x44 x46)))))))))
(assert (or (and (and (and (not (= (x3 (x3 x26 x44) x44) x26)) (and (not (= x46 (x3 (x3 x46 x44) x44))) (not (= x139 (x3 (x3 x139 x44) x44))))) (not (= (x3 (x3 x23 x44) x44) x23))) (not (= (x3 (x3 x44 x44) x44) x44))) (or (or (or (and (not (= x44 (x3 (x3 x44 x46) x46))) (and (and (and (not (= x46 (x3 (x3 x46 x46) x46))) (not (= (x3 (x3 x139 x46) x46) x139))) (not (= (x3 (x3 x26 x46) x46) x26))) (not (= (x3 (x3 x23 x46) x46) x23)))) (and (not (= x44 (x3 (x3 x44 x139) x139))) (and (not (= x23 (x3 (x3 x23 x139) x139))) (and (and (not (= (x3 (x3 x46 x139) x139) x46)) (not (= x139 (x3 (x3 x139 x139) x139)))) (not (= x26 (x3 (x3 x26 x139) x139))))))) (and (not (= (x3 (x3 x44 x26) x26) x44)) (and (not (= x23 (x3 (x3 x23 x26) x26))) (and (not (= x26 (x3 (x3 x26 x26) x26))) (and (not (= x46 (x3 (x3 x46 x26) x26))) (not (= x139 (x3 (x3 x139 x26) x26)))))))) (and (and (not (= x23 (x3 (x3 x23 x23) x23))) (and (and (not (= x139 (x3 (x3 x139 x23) x23))) (not (= (x3 (x3 x46 x23) x23) x46))) (not (= x26 (x3 (x3 x26 x23) x23))))) (not (= (x3 (x3 x44 x23) x23) x44))))))
(check-sat)
(exit)
